2 4 100 1 2
0 700
 1 40.00 50.00 0.00 0.00 0.00 0 0 0 3390
 2 52.00 75.00 90.00 10.00 20.00 1 1 1 0 3272
 3 45.00 70.00 90.00 30.00 10.00 1 1 1 0 3279
 4 62.00 69.00 90.00 10.00 10.00 1 1 1 0 3270
 5 60.00 66.00 90.00 10.00 10.00 1 1 1 1261 1421
 6 42.00 65.00 90.00 10.00 20.00 1 1 1 0 3284
 7 16.00 42.00 90.00 20.00 30.00 1 1 1 0 3274
 8 58.00 70.00 90.00 20.00 20.00 1 1 1 0 3273
 9 34.00 60.00 90.00 20.00 10.00 1 1 1 2887 3047
 10 28.00 70.00 90.00 10.00 30.00 1 1 1 2601 2761
 11 35.00 66.00 90.00 10.00 10.00 1 1 1 0 3283
 12 35.00 69.00 90.00 10.00 20.00 1 1 1 2698 2858
 13 25.00 85.00 90.00 20.00 10.00 1 1 1 0 3261
 14 22.00 75.00 90.00 30.00 20.00 1 1 1 2405 2565
 15 22.00 85.00 90.00 10.00 10.00 1 1 1 0 3260
 16 20.00 80.00 90.00 40.00 10.00 1 1 1 2216 2376
 17 20.00 85.00 90.00 40.00 20.00 1 1 1 0 3259
 18 18.00 75.00 90.00 20.00 20.00 1 1 1 0 3266
 19 15.00 75.00 90.00 20.00 10.00 1 1 1 0 3264
 20 15.00 80.00 90.00 10.00 10.00 1 1 1 0 3260
 21 30.00 50.00 90.00 10.00 10.00 1 1 1 0 3290
 22 30.00 56.00 90.00 20.00 20.00 1 1 1 0 3288
 23 28.00 52.00 90.00 20.00 30.00 1 1 1 0 3287
 24 14.00 66.00 90.00 10.00 10.00 1 1 1 1643 1803
 25 25.00 50.00 90.00 10.00 40.00 1 1 1 0 3285
 26 22.00 66.00 90.00 40.00 10.00 1 1 1 2504 2664
 27 8.00 62.00 90.00 10.00 10.00 1 1 1 0 3265
 28 23.00 52.00 90.00 10.00 10.00 1 1 1 0 3282
 29 4.00 55.00 90.00 20.00 20.00 1 1 1 0 3263
 30 20.00 50.00 90.00 10.00 10.00 1 1 1 0 3280
 31 20.00 55.00 90.00 10.00 30.00 1 1 1 0 3279
 32 10.00 35.00 90.00 20.00 10.00 1 1 1 0 3266
 33 10.00 40.00 90.00 30.00 30.00 1 1 1 0 3268
 34 8.00 40.00 90.00 40.00 10.00 1 1 1 0 3266
 35 8.00 45.00 90.00 20.00 10.00 1 1 1 0 3267
 36 5.00 35.00 90.00 10.00 10.00 1 1 1 0 3261
 37 5.00 45.00 90.00 10.00 10.00 1 1 1 0 3264
 38 2.00 40.00 90.00 20.00 10.00 1 1 1 0 3260
 39 0.00 40.00 90.00 30.00 20.00 1 1 1 1063 1223
 40 0.00 45.00 90.00 20.00 10.00 1 1 1 0 3259
 41 36.00 18.00 90.00 10.00 40.00 1 1 1 0 3267
 42 35.00 32.00 90.00 10.00 10.00 1 1 1 0 3281
 43 33.00 32.00 90.00 20.00 40.00 1 1 1 0 3280
 44 33.00 35.00 90.00 10.00 10.00 1 1 1 0 3283
 45 32.00 20.00 90.00 10.00 30.00 1 1 1 1913 2073
 46 30.00 30.00 90.00 10.00 30.00 1 1 1 0 3277
 47 34.00 25.00 90.00 30.00 30.00 1 1 1 0 3274
 48 30.00 35.00 90.00 10.00 10.00 1 1 1 0 3281
 49 36.00 40.00 90.00 10.00 20.00 1 1 1 0 3289
 50 48.00 20.00 90.00 10.00 10.00 1 1 1 0 3268
 51 26.00 32.00 90.00 10.00 10.00 1 1 1 0 3277
 52 25.00 30.00 90.00 10.00 10.00 1 1 1 0 3275
 53 25.00 35.00 90.00 10.00 10.00 1 1 1 0 3278
 54 44.00 5.00 90.00 20.00 40.00 1 1 1 1256 1416
 55 42.00 10.00 90.00 40.00 10.00 1 1 1 0 3259
 56 42.00 15.00 90.00 10.00 10.00 1 1 1 1065 1225
 57 40.00 5.00 90.00 30.00 10.00 1 1 1 0 3255
 58 38.00 15.00 90.00 40.00 10.00 1 1 1 0 3264
 59 38.00 5.00 90.00 30.00 30.00 1 1 1 1442 1602
 60 38.00 10.00 90.00 10.00 10.00 1 1 1 0 3259
 61 35.00 5.00 90.00 20.00 40.00 1 1 1 0 3254
 62 50.00 30.00 90.00 10.00 10.00 1 1 1 0 3277
 63 50.00 35.00 90.00 20.00 30.00 1 1 1 120 280
 64 50.00 40.00 90.00 50.00 10.00 1 1 1 0 3285
 65 48.00 30.00 90.00 10.00 10.00 1 1 1 0 3278
 66 44.00 25.00 90.00 10.00 40.00 1 1 1 0 3274
 67 47.00 35.00 90.00 10.00 20.00 1 1 1 0 3283
 68 47.00 40.00 90.00 10.00 10.00 1 1 1 12 172
 69 42.00 30.00 90.00 10.00 10.00 1 1 1 0 3279
 70 45.00 35.00 90.00 10.00 20.00 1 1 1 680 840
 71 95.00 30.00 90.00 30.00 20.00 1 1 1 0 3241
 72 95.00 35.00 90.00 20.00 10.00 1 1 1 0 3242
 73 53.00 30.00 90.00 10.00 10.00 1 1 1 0 3276
 74 92.00 30.00 90.00 10.00 20.00 1 1 1 0 3244
 75 53.00 35.00 90.00 50.00 20.00 1 1 1 213 373
 76 45.00 65.00 90.00 20.00 10.00 1 1 1 0 3284
 77 90.00 35.00 90.00 10.00 10.00 1 1 1 2131 2291
 78 72.00 45.00 90.00 10.00 30.00 1 1 1 2900 3060
 79 78.00 40.00 90.00 20.00 20.00 1 1 1 0 3260
 80 87.00 30.00 90.00 10.00 20.00 1 1 1 2608 2768
 81 85.00 25.00 90.00 10.00 40.00 1 1 1 0 3248
 82 85.00 35.00 90.00 30.00 20.00 1 1 1 0 3252
 83 75.00 55.00 90.00 20.00 10.00 1 1 1 0 3264
 84 72.00 55.00 90.00 10.00 30.00 1 1 1 0 3267
 85 70.00 58.00 90.00 20.00 10.00 1 1 1 1641 1801
 86 86.00 46.00 90.00 30.00 20.00 1 1 1 0 3253
 87 66.00 55.00 90.00 10.00 20.00 1 1 1 0 3273
 88 64.00 46.00 90.00 20.00 10.00 1 1 1 3097 3257
 89 65.00 60.00 90.00 30.00 10.00 1 1 1 0 3273
 90 56.00 64.00 90.00 10.00 20.00 1 1 1 0 3278
 91 60.00 55.00 90.00 10.00 20.00 1 1 1 0 3279
 92 60.00 60.00 90.00 10.00 10.00 1 1 1 0 3277
 93 67.00 85.00 90.00 20.00 50.00 1 1 1 694 854
 94 42.00 58.00 90.00 40.00 20.00 1 1 1 0 3291
 95 65.00 82.00 90.00 10.00 10.00 1 1 1 0 3259
 96 62.00 80.00 90.00 30.00 30.00 1 1 1 0 3262
 97 62.00 40.00 90.00 10.00 20.00 1 1 1 0 3275
 98 60.00 85.00 90.00 30.00 20.00 1 1 1 0 3259
 99 58.00 75.00 90.00 20.00 10.00 1 1 1 0 3269
 100 55.00 80.00 90.00 10.00 10.00 1 1 1 407 567
 101 55.00 85.00 90.00 20.00 50.00 1 1 1 502 662
